
N = 9;
C = 9;

% dots
dots = 
  [| 0, 0, 0, 0, 0, 0, r, c, g,
   | 0, b, 0, 0, 0, 0, 0, 0, 0,
   | s, 0, 0, r, 0, 0, 0, 0, 0,
   | 0, 0, 0, c, 0, 0, 0, 0, 0,
   | 0, g, 0, 0, 0, 0, 0, o, 0,
   | 0, 0, 0, 0, p, 0, 0, 0, 0,
   | 0, 0, 0, 0, 0, 0, y, 0, y,
   | 0, 0, 0, s, 0, 0, p, o, v,
   | b, 0, 0, 0, 0, v, 0, 0, 0,
  |];
